c generated by sgen
p cnf 45 100
-2 -3 -4 0
-1 -3 -4 0
-1 -2 -4 0
-1 -2 -3 0
-6 -7 -8 0
-5 -7 -8 0
-5 -6 -8 0
-5 -6 -7 0
-10 -11 -12 0
-9 -11 -12 0
-9 -10 -12 0
-9 -10 -11 0
-14 -15 -16 0
-13 -15 -16 0
-13 -14 -16 0
-13 -14 -15 0
-18 -19 -20 0
-17 -19 -20 0
-17 -18 -20 0
-17 -18 -19 0
-22 -23 -24 0
-21 -23 -24 0
-21 -22 -24 0
-21 -22 -23 0
-26 -27 -28 0
-25 -27 -28 0
-25 -26 -28 0
-25 -26 -27 0
-30 -31 -32 0
-29 -31 -32 0
-29 -30 -32 0
-29 -30 -31 0
-34 -35 -36 0
-33 -35 -36 0
-33 -34 -36 0
-33 -34 -35 0
-38 -39 -40 0
-37 -39 -40 0
-37 -38 -40 0
-37 -38 -39 0
-41 -42 -43 0
-41 -42 -44 0
-41 -42 -45 0
-41 -43 -44 0
-41 -43 -45 0
-41 -44 -45 0
-42 -43 -44 0
-42 -43 -45 0
-42 -44 -45 0
-43 -44 -45 0
4 41 40 0
17 41 40 0
17 4 40 0
17 4 41 0
39 6 18 0
14 6 18 0
14 39 18 0
14 39 6 0
30 35 21 0
38 35 21 0
38 30 21 0
38 30 35 0
20 9 3 0
32 9 3 0
32 20 3 0
32 20 9 0
11 37 29 0
26 37 29 0
26 11 29 0
26 11 37 0
10 23 43 0
7 23 43 0
7 10 43 0
7 10 23 0
34 25 19 0
44 25 19 0
44 34 19 0
44 34 25 0
42 16 31 0
5 16 31 0
5 42 31 0
5 42 16 0
1 28 36 0
8 28 36 0
8 1 36 0
8 1 28 0
45 22 13 0
27 22 13 0
27 45 13 0
27 45 22 0
33 15 2 0
33 15 24 0
33 15 12 0
33 2 24 0
33 2 12 0
33 24 12 0
15 2 24 0
15 2 12 0
15 24 12 0
2 24 12 0
